p edge 400 2400
e 1 26
e 1 91
e 1 112
e 1 156
e 1 188
e 1 237
e 2 85
e 2 212
e 2 302
e 2 304
e 2 332
e 2 374
e 3 5
e 3 56
e 3 187
e 3 268
e 3 292
e 3 362
e 4 23
e 4 73
e 4 175
e 4 195
e 4 307
e 4 369
e 5 112
e 5 112
e 5 321
e 5 357
e 5 395
e 5 395
e 6 30
e 6 159
e 6 225
e 6 228
e 6 279
e 6 298
e 7 52
e 7 119
e 7 264
e 7 315
e 7 378
e 7 386
e 8 188
e 8 206
e 8 216
e 8 233
e 8 263
e 8 363
e 9 7
e 9 68
e 9 73
e 9 104
e 9 177
e 9 317
e 10 102
e 10 128
e 10 284
e 10 363
e 10 369
e 10 374
e 11 100
e 11 165
e 11 186
e 11 278
e 11 350
e 11 373
e 12 13
e 12 131
e 12 159
e 12 189
e 12 262
e 12 355
e 13 52
e 13 55
e 13 222
e 13 228
e 13 234
e 13 243
e 14 6
e 14 151
e 14 191
e 14 269
e 14 337
e 14 384
e 15 56
e 15 183
e 15 191
e 15 202
e 15 300
e 15 355
e 16 45
e 16 82
e 16 128
e 16 136
e 16 260
e 16 377
e 17 90
e 17 199
e 17 227
e 17 275
e 17 300
e 17 303
e 18 1
e 18 59
e 18 236
e 18 240
e 18 247
e 18 329
e 19 41
e 19 57
e 19 82
e 19 250
e 19 262
e 19 304
e 20 4
e 20 142
e 20 159
e 20 168
e 20 172
e 20 361
e 21 118
e 21 143
e 21 179
e 21 193
e 21 348
e 21 394
e 22 24
e 22 122
e 22 219
e 22 297
e 22 381
e 22 382
e 23 1
e 23 16
e 23 22
e 23 117
e 23 133
e 23 202
e 24 26
e 24 88
e 24 121
e 24 224
e 24 281
e 24 297
e 25 68
e 25 73
e 25 76
e 25 169
e 25 351
e 25 382
e 26 51
e 26 235
e 26 296
e 26 328
e 26 328
e 26 385
e 27 40
e 27 182
e 27 321
e 27 321
e 27 346
e 27 374
e 28 47
e 28 154
e 28 203
e 28 221
e 28 288
e 28 311
e 29 1
e 29 65
e 29 110
e 29 237
e 29 270
e 29 380
e 30 65
e 30 215
e 30 297
e 30 297
e 30 384
e 30 389
e 31 38
e 31 105
e 31 111
e 31 249
e 31 317
e 31 392
e 32 23
e 32 41
e 32 86
e 32 178
e 32 207
e 32 390
e 33 106
e 33 196
e 33 222
e 33 359
e 33 368
e 33 378
e 34 147
e 34 150
e 34 194
e 34 241
e 34 247
e 34 303
e 35 109
e 35 114
e 35 172
e 35 173
e 35 173
e 35 173
e 36 22
e 36 26
e 36 38
e 36 175
e 36 189
e 36 361
e 37 13
e 37 46
e 37 212
e 37 274
e 37 354
e 37 357
e 38 51
e 38 73
e 38 75
e 38 264
e 38 287
e 38 297
e 39 77
e 39 109
e 39 132
e 39 256
e 39 290
e 39 392
e 40 148
e 40 175
e 40 211
e 40 302
e 40 320
e 40 354
e 41 92
e 41 113
e 41 209
e 41 237
e 41 381
e 41 393
e 42 33
e 42 170
e 42 190
e 42 197
e 42 217
e 42 323
e 43 30
e 43 86
e 43 98
e 43 111
e 43 112
e 43 207
e 44 8
e 44 82
e 44 104
e 44 113
e 44 175
e 44 312
e 45 10
e 45 128
e 45 129
e 45 137
e 45 213
e 45 382
e 46 6
e 46 81
e 46 84
e 46 184
e 46 274
e 46 381
e 47 104
e 47 147
e 47 196
e 47 289
e 47 370
e 47 384
e 48 104
e 48 180
e 48 269
e 48 315
e 48 342
e 48 390
e 49 54
e 49 140
e 49 154
e 49 196
e 49 307
e 49 340
e 50 51
e 50 177
e 50 190
e 50 216
e 50 267
e 50 328
e 51 64
e 51 110
e 51 113
e 51 143
e 51 348
e 51 380
e 52 75
e 52 119
e 52 267
e 52 302
e 52 338
e 52 373
e 53 5
e 53 43
e 53 90
e 53 104
e 53 120
e 53 155
e 54 18
e 54 104
e 54 164
e 54 253
e 54 283
e 54 312
e 55 49
e 55 74
e 55 227
e 55 227
e 55 289
e 55 380
e 56 42
e 56 99
e 56 173
e 56 307
e 56 321
e 56 382
e 57 73
e 57 158
e 57 185
e 57 200
e 57 267
e 57 336
e 58 74
e 58 78
e 58 152
e 58 165
e 58 238
e 58 337
e 59 16
e 59 46
e 59 165
e 59 195
e 59 259
e 59 301
e 60 103
e 60 135
e 60 164
e 60 267
e 60 268
e 60 298
e 61 10
e 61 17
e 61 17
e 61 118
e 61 340
e 61 391
e 62 5
e 62 48
e 62 111
e 62 275
e 62 303
e 62 322
e 63 12
e 63 72
e 63 230
e 63 300
e 63 318
e 63 383
e 64 99
e 64 166
e 64 208
e 64 281
e 64 316
e 64 347
e 65 3
e 65 42
e 65 149
e 65 326
e 65 357
e 65 383
e 66 209
e 66 265
e 66 310
e 66 326
e 66 373
e 66 398
e 67 134
e 67 156
e 67 306
e 67 357
e 67 364
e 67 389
e 68 19
e 68 129
e 68 226
e 68 227
e 68 231
e 68 288
e 69 11
e 69 140
e 69 188
e 69 230
e 69 271
e 69 301
e 70 2
e 70 86
e 70 108
e 70 135
e 70 321
e 70 388
e 71 40
e 71 93
e 71 141
e 71 185
e 71 265
e 71 286
e 72 47
e 72 138
e 72 168
e 72 259
e 72 273
e 72 301
e 73 62
e 73 83
e 73 127
e 73 213
e 73 354
e 73 388
e 74 121
e 74 158
e 74 166
e 74 174
e 74 287
e 74 352
e 75 78
e 75 82
e 75 181
e 75 294
e 75 385
e 75 396
e 76 52
e 76 141
e 76 184
e 76 257
e 76 318
e 76 342
e 77 81
e 77 102
e 77 194
e 77 297
e 77 315
e 77 333
e 78 46
e 78 73
e 78 155
e 78 156
e 78 211
e 78 274
e 79 35
e 79 116
e 79 162
e 79 177
e 79 271
e 79 356
e 80 15
e 80 59
e 80 60
e 80 107
e 80 156
e 80 295
e 81 136
e 81 141
e 81 180
e 81 239
e 81 241
e 81 305
e 82 13
e 82 97
e 82 142
e 82 188
e 82 319
e 82 320
e 83 21
e 83 38
e 83 93
e 83 241
e 83 371
e 83 389
e 84 32
e 84 60
e 84 144
e 84 205
e 84 386
e 84 395
e 85 17
e 85 254
e 85 273
e 85 278
e 85 288
e 85 325
e 86 16
e 86 43
e 86 49
e 86 219
e 86 224
e 86 279
e 87 101
e 87 116
e 87 156
e 87 183
e 87 243
e 87 340
e 88 24
e 88 114
e 88 120
e 88 211
e 88 223
e 88 345
e 89 32
e 89 94
e 89 110
e 89 253
e 89 315
e 89 387
e 90 26
e 90 31
e 90 62
e 90 256
e 90 295
e 90 351
e 91 55
e 91 183
e 91 243
e 91 261
e 91 315
e 91 319
e 92 62
e 92 70
e 92 103
e 92 124
e 92 155
e 92 197
e 93 74
e 93 132
e 93 177
e 93 237
e 93 292
e 93 298
e 94 20
e 94 47
e 94 49
e 94 67
e 94 85
e 94 121
e 95 30
e 95 136
e 95 230
e 95 270
e 95 337
e 95 373
e 96 61
e 96 130
e 96 238
e 96 245
e 96 261
e 96 343
e 97 20
e 97 74
e 97 74
e 97 164
e 97 312
e 97 341
e 98 95
e 98 129
e 98 141
e 98 291
e 98 358
e 98 371
e 99 140
e 99 167
e 99 198
e 99 262
e 99 288
e 99 375
e 100 30
e 100 288
e 100 346
e 100 353
e 100 375
e 100 376
e 101 8
e 101 170
e 101 196
e 101 237
e 101 283
e 101 366
e 102 8
e 102 49
e 102 145
e 102 226
e 102 287
e 102 396
e 103 21
e 103 22
e 103 81
e 103 185
e 103 306
e 103 324
e 104 60
e 104 65
e 104 67
e 104 95
e 104 212
e 104 332
e 105 64
e 105 97
e 105 183
e 105 257
e 105 279
e 105 358
e 106 5
e 106 25
e 106 118
e 106 128
e 106 351
e 106 352
e 107 13
e 107 115
e 107 123
e 107 146
e 107 157
e 107 249
e 108 70
e 108 77
e 108 157
e 108 250
e 108 311
e 108 380
e 109 82
e 109 136
e 109 179
e 109 282
e 109 315
e 109 393
e 110 9
e 110 26
e 110 75
e 110 148
e 110 324
e 110 383
e 111 57
e 111 106
e 111 126
e 111 192
e 111 304
e 111 374
e 112 21
e 112 32
e 112 54
e 112 82
e 112 252
e 112 377
e 113 129
e 113 140
e 113 190
e 113 210
e 113 284
e 113 389
e 114 39
e 114 108
e 114 265
e 114 305
e 114 314
e 114 333
e 115 42
e 115 70
e 115 126
e 115 309
e 115 322
e 115 395
e 116 75
e 116 174
e 116 174
e 116 318
e 116 328
e 116 394
e 117 50
e 117 71
e 117 198
e 117 231
e 117 288
e 117 343
e 118 50
e 118 53
e 118 146
e 118 170
e 118 369
e 118 397
e 119 32
e 119 34
e 119 95
e 119 135
e 119 211
e 119 352
e 120 89
e 120 139
e 120 266
e 120 276
e 120 355
e 120 399
e 121 12
e 121 325
e 121 332
e 121 349
e 121 391
e 121 394
e 122 5
e 122 124
e 122 127
e 122 258
e 122 318
e 122 399
e 123 21
e 123 108
e 123 170
e 123 285
e 123 354
e 123 355
e 124 161
e 124 193
e 124 269
e 124 339
e 124 351
e 124 352
e 125 23
e 125 36
e 125 64
e 125 95
e 125 122
e 125 163
e 126 13
e 126 159
e 126 209
e 126 234
e 126 262
e 126 397
e 127 42
e 127 51
e 127 89
e 127 140
e 127 204
e 127 318
e 128 24
e 128 172
e 128 216
e 128 268
e 128 298
e 128 320
e 129 56
e 129 330
e 129 345
e 129 363
e 129 392
e 129 396
e 130 103
e 130 138
e 130 165
e 130 220
e 130 250
e 130 265
e 131 90
e 131 177
e 131 212
e 131 217
e 131 266
e 131 331
e 132 139
e 132 145
e 132 208
e 132 249
e 132 360
e 132 367
e 133 22
e 133 177
e 133 285
e 133 291
e 133 325
e 133 328
e 134 27
e 134 76
e 134 116
e 134 208
e 134 222
e 134 392
e 135 67
e 135 123
e 135 192
e 135 197
e 135 335
e 135 363
e 136 10
e 136 52
e 136 85
e 136 123
e 136 350
e 136 356
e 137 48
e 137 99
e 137 118
e 137 119
e 137 254
e 137 309
e 138 30
e 138 70
e 138 175
e 138 262
e 138 376
e 138 386
e 139 11
e 139 43
e 139 219
e 139 228
e 139 287
e 139 292
e 140 36
e 140 60
e 140 63
e 140 163
e 140 178
e 140 230
e 141 81
e 141 256
e 141 333
e 141 352
e 141 395
e 141 399
e 142 37
e 142 250
e 142 267
e 142 306
e 142 338
e 142 399
e 143 6
e 143 7
e 143 181
e 143 204
e 143 317
e 143 322
e 144 29
e 144 36
e 144 143
e 144 179
e 144 200
e 144 303
e 145 12
e 145 39
e 145 61
e 145 80
e 145 242
e 145 308
e 146 126
e 146 175
e 146 277
e 146 295
e 146 309
e 146 336
e 147 93
e 147 143
e 147 199
e 147 307
e 147 355
e 147 389
e 148 184
e 148 273
e 148 295
e 148 333
e 148 335
e 148 398
e 149 9
e 149 133
e 149 136
e 149 190
e 149 216
e 149 381
e 150 9
e 150 62
e 150 195
e 150 264
e 150 289
e 150 311
e 151 172
e 151 255
e 151 275
e 151 283
e 151 292
e 151 368
e 152 95
e 152 159
e 152 169
e 152 218
e 152 275
e 152 344
e 153 17
e 153 77
e 153 108
e 153 189
e 153 250
e 153 399
e 154 221
e 154 231
e 154 236
e 154 282
e 154 352
e 154 354
e 155 47
e 155 137
e 155 179
e 155 278
e 155 301
e 155 324
e 156 41
e 156 72
e 156 77
e 156 147
e 156 284
e 156 360
e 157 83
e 157 102
e 157 273
e 157 280
e 157 356
e 157 391
e 158 31
e 158 40
e 158 68
e 158 154
e 158 173
e 158 275
e 159 77
e 159 169
e 159 266
e 159 270
e 159 320
e 159 351
e 160 99
e 160 223
e 160 302
e 160 329
e 160 331
e 160 377
e 161 19
e 161 58
e 161 72
e 161 297
e 161 333
e 161 375
e 162 105
e 162 145
e 162 169
e 162 226
e 162 267
e 162 320
e 163 103
e 163 105
e 163 111
e 163 198
e 163 232
e 163 257
e 164 112
e 164 129
e 164 138
e 164 230
e 164 264
e 164 358
e 165 41
e 165 118
e 165 140
e 165 297
e 165 357
e 165 365
e 166 55
e 166 95
e 166 134
e 166 341
e 166 360
e 166 377
e 167 76
e 167 92
e 167 191
e 167 310
e 167 384
e 167 395
e 168 15
e 168 111
e 168 163
e 168 243
e 168 243
e 168 244
e 169 62
e 169 104
e 169 232
e 169 309
e 169 319
e 169 394
e 170 62
e 170 194
e 170 205
e 170 319
e 170 365
e 170 399
e 171 7
e 171 9
e 171 43
e 171 49
e 171 160
e 171 202
e 172 63
e 172 93
e 172 158
e 172 165
e 172 254
e 172 360
e 173 9
e 173 100
e 173 177
e 173 182
e 173 235
e 173 270
e 174 23
e 174 57
e 174 133
e 174 262
e 174 371
e 174 382
e 175 37
e 175 69
e 175 78
e 175 119
e 175 134
e 175 394
e 176 35
e 176 52
e 176 137
e 176 152
e 176 181
e 176 358
e 177 54
e 177 60
e 177 97
e 177 108
e 177 194
e 177 250
e 178 19
e 178 123
e 178 159
e 178 201
e 178 305
e 178 359
e 179 20
e 179 111
e 179 160
e 179 222
e 179 292
e 179 297
e 180 159
e 180 205
e 180 215
e 180 231
e 180 361
e 180 391
e 181 123
e 181 153
e 181 217
e 181 235
e 181 290
e 181 333
e 182 193
e 182 285
e 182 336
e 182 356
e 182 369
e 182 378
e 183 4
e 183 41
e 183 205
e 183 229
e 183 296
e 183 395
e 184 54
e 184 55
e 184 72
e 184 163
e 184 323
e 184 345
e 185 31
e 185 43
e 185 59
e 185 134
e 185 238
e 185 347
e 186 141
e 186 241
e 186 255
e 186 356
e 186 366
e 186 398
e 187 31
e 187 39
e 187 183
e 187 287
e 187 288
e 187 355
e 188 67
e 188 74
e 188 115
e 188 208
e 188 265
e 188 266
e 189 3
e 189 70
e 189 113
e 189 153
e 189 166
e 189 349
e 190 3
e 190 26
e 190 97
e 190 274
e 190 355
e 190 389
e 191 50
e 191 104
e 191 105
e 191 112
e 191 226
e 191 284
e 192 15
e 192 77
e 192 94
e 192 234
e 192 317
e 192 323
e 193 26
e 193 27
e 193 188
e 193 246
e 193 264
e 193 353
e 194 135
e 194 153
e 194 187
e 194 202
e 194 254
e 194 337
e 195 25
e 195 56
e 195 107
e 195 253
e 195 266
e 195 323
e 196 10
e 196 18
e 196 67
e 196 136
e 196 144
e 196 148
e 197 50
e 197 86
e 197 170
e 197 171
e 197 361
e 197 387
e 198 139
e 198 143
e 198 185
e 198 197
e 198 273
e 198 376
e 199 11
e 199 107
e 199 116
e 199 161
e 199 298
e 199 398
e 200 50
e 200 97
e 200 142
e 200 218
e 200 250
e 200 280
e 201 55
e 201 69
e 201 133
e 201 176
e 201 251
e 201 308
e 202 86
e 202 104
e 202 154
e 202 155
e 202 276
e 202 315
e 203 225
e 203 250
e 203 263
e 203 264
e 203 290
e 203 291
e 204 7
e 204 46
e 204 132
e 204 251
e 204 270
e 204 395
e 205 14
e 205 49
e 205 119
e 205 190
e 205 201
e 205 334
e 206 22
e 206 143
e 206 232
e 206 281
e 206 297
e 206 400
e 207 6
e 207 83
e 207 98
e 207 100
e 207 151
e 207 154
e 208 148
e 208 160
e 208 189
e 208 314
e 208 320
e 208 355
e 209 69
e 209 155
e 209 292
e 209 348
e 209 356
e 209 362
e 210 2
e 210 63
e 210 194
e 210 225
e 210 231
e 210 235
e 211 49
e 211 165
e 211 165
e 211 223
e 211 294
e 211 384
e 212 32
e 212 125
e 212 184
e 212 240
e 212 307
e 212 357
e 213 34
e 213 39
e 213 82
e 213 87
e 213 271
e 213 329
e 214 11
e 214 107
e 214 142
e 214 146
e 214 330
e 214 358
e 215 66
e 215 105
e 215 157
e 215 165
e 215 173
e 215 241
e 216 25
e 216 66
e 216 72
e 216 73
e 216 256
e 216 291
e 217 49
e 217 93
e 217 189
e 217 248
e 217 299
e 217 384
e 218 119
e 218 151
e 218 217
e 218 260
e 218 344
e 218 354
e 219 125
e 219 126
e 219 140
e 219 163
e 219 232
e 219 349
e 220 137
e 220 223
e 220 227
e 220 256
e 220 270
e 220 283
e 221 216
e 221 233
e 221 284
e 221 310
e 221 349
e 221 349
e 222 20
e 222 24
e 222 45
e 222 102
e 222 191
e 222 357
e 223 4
e 223 148
e 223 216
e 223 244
e 223 341
e 223 358
e 224 60
e 224 104
e 224 154
e 224 169
e 224 336
e 224 357
e 225 162
e 225 228
e 225 294
e 225 308
e 225 342
e 225 345
e 226 166
e 226 198
e 226 207
e 226 325
e 226 344
e 226 385
e 227 95
e 227 128
e 227 195
e 227 334
e 227 339
e 227 391
e 228 102
e 228 205
e 228 249
e 228 270
e 228 307
e 228 311
e 229 55
e 229 65
e 229 85
e 229 89
e 229 114
e 229 150
e 230 37
e 230 66
e 230 140
e 230 165
e 230 257
e 230 397
e 231 25
e 231 75
e 231 179
e 231 260
e 231 268
e 231 367
e 232 9
e 232 57
e 232 58
e 232 168
e 232 183
e 232 240
e 233 49
e 233 137
e 233 158
e 233 343
e 233 362
e 233 364
e 234 89
e 234 142
e 234 277
e 234 337
e 234 358
e 234 359
e 235 83
e 235 84
e 235 207
e 235 265
e 235 366
e 235 395
e 236 79
e 236 93
e 236 150
e 236 261
e 236 278
e 236 354
e 237 8
e 237 11
e 237 82
e 237 220
e 237 244
e 237 346
e 238 180
e 238 208
e 238 270
e 238 279
e 238 321
e 238 347
e 239 17
e 239 56
e 239 105
e 239 109
e 239 221
e 239 309
e 240 14
e 240 63
e 240 105
e 240 153
e 240 246
e 240 284
e 241 8
e 241 145
e 241 196
e 241 279
e 241 329
e 241 339
e 242 42
e 242 121
e 242 149
e 242 197
e 242 235
e 242 358
e 243 113
e 243 135
e 243 195
e 243 203
e 243 241
e 243 316
e 244 72
e 244 149
e 244 209
e 244 276
e 244 302
e 244 314
e 245 122
e 245 138
e 245 204
e 245 213
e 245 220
e 245 317
e 246 21
e 246 35
e 246 81
e 246 228
e 246 276
e 246 383
e 247 80
e 247 118
e 247 214
e 247 249
e 247 265
e 247 289
e 248 60
e 248 160
e 248 171
e 248 223
e 248 290
e 248 362
e 249 152
e 249 154
e 249 277
e 249 281
e 249 358
e 249 400
e 250 127
e 250 177
e 250 229
e 250 248
e 250 363
e 250 379
e 251 41
e 251 71
e 251 79
e 251 200
e 251 309
e 251 330
e 252 101
e 252 134
e 252 238
e 252 281
e 252 361
e 252 376
e 253 30
e 253 65
e 253 111
e 253 131
e 253 217
e 253 315
e 254 14
e 254 190
e 254 244
e 254 306
e 254 347
e 254 349
e 255 74
e 255 101
e 255 144
e 255 268
e 255 300
e 255 323
e 256 5
e 256 53
e 256 59
e 256 181
e 256 183
e 256 287
e 257 11
e 257 61
e 257 131
e 257 239
e 257 259
e 257 279
e 258 19
e 258 22
e 258 89
e 258 144
e 258 161
e 258 187
e 259 15
e 259 57
e 259 86
e 259 173
e 259 285
e 259 305
e 260 152
e 260 156
e 260 247
e 260 274
e 260 281
e 260 369
e 261 56
e 261 141
e 261 169
e 261 237
e 261 355
e 261 391
e 262 91
e 262 195
e 262 199
e 262 295
e 262 305
e 262 311
e 263 11
e 263 133
e 263 302
e 263 329
e 263 341
e 263 360
e 264 7
e 264 54
e 264 106
e 264 149
e 264 167
e 264 312
e 265 46
e 265 51
e 265 63
e 265 101
e 265 142
e 265 396
e 266 17
e 266 20
e 266 172
e 266 239
e 266 333
e 266 366
e 267 133
e 267 179
e 267 227
e 267 300
e 267 327
e 267 332
e 268 43
e 268 94
e 268 120
e 268 143
e 268 244
e 268 366
e 269 31
e 269 60
e 269 85
e 269 98
e 269 172
e 269 386
e 270 94
e 270 113
e 270 160
e 270 166
e 270 249
e 270 256
e 271 210
e 271 270
e 271 304
e 271 307
e 271 326
e 271 328
e 272 67
e 272 255
e 272 269
e 272 276
e 272 296
e 272 370
e 273 33
e 273 59
e 273 163
e 273 245
e 273 332
e 273 390
e 274 26
e 274 61
e 274 362
e 274 371
e 274 377
e 274 377
e 275 7
e 275 75
e 275 220
e 275 306
e 275 344
e 275 393
e 276 8
e 276 86
e 276 173
e 276 193
e 276 245
e 276 266
e 277 1
e 277 31
e 277 48
e 277 122
e 277 122
e 277 318
e 278 93
e 278 154
e 278 237
e 278 239
e 278 286
e 278 296
e 279 78
e 279 154
e 279 158
e 279 212
e 279 339
e 279 362
e 280 56
e 280 86
e 280 166
e 280 186
e 280 290
e 280 361
e 281 15
e 281 52
e 281 109
e 281 120
e 281 192
e 281 218
e 282 59
e 282 79
e 282 100
e 282 151
e 282 304
e 282 359
e 283 68
e 283 91
e 283 165
e 283 183
e 283 199
e 283 222
e 284 50
e 284 118
e 284 171
e 284 203
e 284 222
e 284 258
e 285 31
e 285 189
e 285 225
e 285 351
e 285 367
e 285 380
e 286 35
e 286 72
e 286 181
e 286 237
e 286 274
e 286 340
e 287 97
e 287 198
e 287 290
e 287 296
e 287 330
e 287 380
e 288 4
e 288 53
e 288 149
e 288 254
e 288 293
e 288 304
e 289 38
e 289 152
e 289 154
e 289 203
e 289 233
e 289 373
e 290 79
e 290 195
e 290 204
e 290 221
e 290 264
e 290 392
e 291 215
e 291 294
e 291 312
e 291 325
e 291 359
e 291 381
e 292 82
e 292 128
e 292 184
e 292 203
e 292 348
e 292 356
e 293 132
e 293 164
e 293 204
e 293 237
e 293 273
e 293 384
e 294 20
e 294 82
e 294 117
e 294 313
e 294 365
e 294 385
e 295 10
e 295 41
e 295 48
e 295 68
e 295 142
e 295 388
e 296 15
e 296 38
e 296 187
e 296 212
e 296 314
e 296 392
e 297 50
e 297 96
e 297 249
e 297 295
e 297 324
e 297 325
e 298 38
e 298 148
e 298 235
e 298 332
e 298 338
e 298 377
e 299 21
e 299 47
e 299 120
e 299 147
e 299 245
e 299 332
e 300 187
e 300 227
e 300 251
e 300 260
e 300 311
e 300 361
e 301 126
e 301 219
e 301 247
e 301 294
e 301 333
e 301 342
e 302 24
e 302 71
e 302 105
e 302 133
e 302 286
e 302 363
e 303 25
e 303 76
e 303 194
e 303 320
e 303 396
e 303 400
e 304 175
e 304 186
e 304 196
e 304 259
e 304 296
e 304 344
e 305 179
e 305 195
e 305 227
e 305 273
e 305 298
e 305 386
e 306 100
e 306 135
e 306 286
e 306 304
e 306 319
e 306 391
e 307 11
e 307 129
e 307 153
e 307 188
e 307 206
e 307 361
e 308 44
e 308 67
e 308 70
e 308 185
e 308 230
e 308 362
e 309 92
e 309 250
e 309 255
e 309 340
e 309 343
e 309 389
e 310 126
e 310 210
e 310 341
e 310 363
e 310 388
e 310 398
e 311 12
e 311 47
e 311 167
e 311 237
e 311 300
e 311 388
e 312 125
e 312 292
e 312 336
e 312 384
e 312 389
e 312 391
e 313 37
e 313 37
e 313 79
e 313 173
e 313 183
e 313 242
e 314 159
e 314 237
e 314 277
e 314 289
e 314 343
e 314 364
e 315 150
e 315 213
e 315 266
e 315 304
e 315 347
e 315 351
e 316 118
e 316 205
e 316 282
e 316 309
e 316 348
e 316 372
e 317 6
e 317 28
e 317 57
e 317 132
e 317 134
e 317 288
e 318 72
e 318 120
e 318 180
e 318 228
e 318 293
e 318 396
e 319 12
e 319 42
e 319 86
e 319 108
e 319 182
e 319 352
e 320 2
e 320 90
e 320 95
e 320 201
e 320 302
e 320 395
e 321 95
e 321 244
e 321 278
e 321 279
e 321 339
e 321 393
e 322 32
e 322 133
e 322 142
e 322 195
e 322 199
e 322 252
e 323 218
e 323 256
e 323 268
e 323 324
e 323 382
e 323 387
e 324 69
e 324 168
e 324 347
e 324 349
e 324 377
e 324 383
e 325 6
e 325 25
e 325 32
e 325 66
e 325 98
e 325 250
e 326 8
e 326 146
e 326 225
e 326 288
e 326 289
e 326 319
e 327 1
e 327 115
e 327 125
e 327 166
e 327 213
e 327 272
e 328 3
e 328 42
e 328 64
e 328 198
e 328 261
e 328 291
e 329 148
e 329 185
e 329 309
e 329 366
e 329 366
e 329 384
e 330 256
e 330 304
e 330 314
e 330 322
e 330 334
e 330 352
e 331 52
e 331 251
e 331 262
e 331 272
e 331 317
e 331 327
e 332 118
e 332 179
e 332 245
e 332 245
e 332 339
e 332 342
e 333 56
e 333 74
e 333 156
e 333 204
e 333 297
e 333 389
e 334 15
e 334 40
e 334 109
e 334 172
e 334 316
e 334 399
e 335 205
e 335 270
e 335 284
e 335 300
e 335 319
e 335 375
e 336 84
e 336 127
e 336 150
e 336 357
e 336 382
e 336 388
e 337 35
e 337 238
e 337 241
e 337 243
e 337 304
e 337 359
e 338 121
e 338 132
e 338 197
e 338 266
e 338 317
e 338 331
e 339 88
e 339 121
e 339 206
e 339 207
e 339 228
e 339 310
e 340 85
e 340 129
e 340 184
e 340 226
e 340 262
e 340 314
e 341 4
e 341 17
e 341 117
e 341 155
e 341 217
e 341 399
e 342 42
e 342 139
e 342 152
e 342 239
e 342 281
e 342 388
e 343 57
e 343 263
e 343 278
e 343 328
e 343 375
e 343 397
e 344 26
e 344 46
e 344 130
e 344 169
e 344 236
e 344 300
e 345 97
e 345 118
e 345 209
e 345 253
e 345 291
e 345 367
e 346 39
e 346 123
e 346 179
e 346 280
e 346 310
e 346 365
e 347 56
e 347 117
e 347 143
e 347 320
e 347 340
e 347 389
e 348 24
e 348 98
e 348 158
e 348 159
e 348 159
e 348 298
e 349 24
e 349 177
e 349 211
e 349 238
e 349 246
e 349 253
e 350 196
e 350 263
e 350 278
e 350 327
e 350 345
e 350 373
e 351 42
e 351 120
e 351 217
e 351 285
e 351 323
e 351 357
e 352 62
e 352 116
e 352 126
e 352 202
e 352 339
e 352 356
e 353 1
e 353 8
e 353 104
e 353 118
e 353 274
e 353 389
e 354 44
e 354 147
e 354 166
e 354 196
e 354 222
e 354 247
e 355 11
e 355 15
e 355 171
e 355 192
e 355 208
e 355 390
e 356 23
e 356 76
e 356 88
e 356 135
e 356 252
e 356 284
e 357 59
e 357 100
e 357 187
e 357 192
e 357 307
e 357 371
e 358 39
e 358 52
e 358 93
e 358 114
e 358 265
e 358 267
e 359 4
e 359 84
e 359 264
e 359 325
e 359 337
e 359 380
e 360 11
e 360 23
e 360 55
e 360 57
e 360 128
e 360 282
e 361 17
e 361 143
e 361 170
e 361 258
e 361 334
e 361 340
e 362 21
e 362 165
e 362 224
e 362 256
e 362 358
e 362 385
e 363 20
e 363 47
e 363 136
e 363 185
e 363 274
e 363 368
e 364 10
e 364 61
e 364 112
e 364 138
e 364 336
e 364 379
e 365 64
e 365 118
e 365 153
e 365 191
e 365 267
e 365 293
e 366 26
e 366 34
e 366 88
e 366 153
e 366 202
e 366 214
e 367 56
e 367 180
e 367 187
e 367 275
e 367 295
e 367 335
e 368 153
e 368 161
e 368 188
e 368 189
e 368 279
e 368 353
e 369 8
e 369 40
e 369 55
e 369 62
e 369 156
e 369 175
e 370 51
e 370 96
e 370 166
e 370 184
e 370 313
e 370 374
e 371 85
e 371 120
e 371 196
e 371 259
e 371 272
e 371 362
e 372 105
e 372 236
e 372 257
e 372 313
e 372 318
e 372 389
e 373 78
e 373 204
e 373 235
e 373 280
e 373 296
e 373 351
e 374 15
e 374 167
e 374 218
e 374 229
e 374 369
e 374 379
e 375 55
e 375 77
e 375 161
e 375 170
e 375 174
e 375 180
e 376 73
e 376 123
e 376 136
e 376 251
e 376 298
e 376 387
e 377 134
e 377 189
e 377 194
e 377 307
e 377 345
e 377 393
e 378 8
e 378 11
e 378 65
e 378 180
e 378 280
e 378 321
e 379 83
e 379 87
e 379 120
e 379 166
e 379 216
e 379 355
e 380 87
e 380 113
e 380 297
e 380 321
e 380 330
e 380 347
e 381 51
e 381 211
e 381 212
e 381 231
e 381 315
e 381 391
e 382 132
e 382 194
e 382 241
e 382 283
e 382 308
e 382 344
e 383 91
e 383 151
e 383 185
e 383 265
e 383 288
e 383 358
e 384 53
e 384 88
e 384 131
e 384 209
e 384 216
e 384 341
e 385 14
e 385 60
e 385 192
e 385 304
e 385 332
e 385 367
e 386 18
e 386 21
e 386 79
e 386 334
e 386 360
e 386 367
e 387 10
e 387 136
e 387 193
e 387 224
e 387 234
e 387 372
e 388 54
e 388 79
e 388 220
e 388 222
e 388 271
e 388 369
e 389 11
e 389 55
e 389 100
e 389 114
e 389 214
e 389 365
e 390 65
e 390 98
e 390 102
e 390 125
e 390 281
e 390 368
e 391 29
e 391 34
e 391 125
e 391 223
e 391 352
e 391 368
e 392 24
e 392 30
e 392 90
e 392 114
e 392 196
e 392 334
e 393 82
e 393 244
e 393 347
e 393 347
e 393 350
e 393 389
e 394 91
e 394 123
e 394 151
e 394 160
e 394 169
e 394 174
e 395 30
e 395 37
e 395 107
e 395 185
e 395 191
e 395 371
e 396 86
e 396 130
e 396 183
e 396 187
e 396 242
e 396 250
e 397 49
e 397 172
e 397 248
e 397 272
e 397 310
e 397 324
e 398 13
e 398 67
e 398 104
e 398 123
e 398 230
e 398 388
e 399 4
e 399 44
e 399 79
e 399 180
e 399 335
e 399 393
e 400 16
e 400 68
e 400 113
e 400 128
e 400 201
e 400 291
